Nodes = {"N1", "N2", "N3", "N4", "N5", "N6", "N7", "N8", "N9", "N10", "N11", "N12", "N13", "N14", "N15", "N16", "N17", "N18", "N19", "N20", "N21", "N22", "N23", "N24", "N25", "N26", "N27"};
Arcs = {<"N1","N2",68,0>, <"N1","N3",68,231>, <"N1","N4",68,339>, <"N1","N5",68,430>, <"N1","N6",68,485>, <"N1","N7",68,529>, <"N1","N8",68,560>, <"N1","N9",68,578>, <"N1","N10",68,622>, <"N1","N11",68,610>, <"N1","N12",68,496>, <"N1","N13",68,430>, <"N1","N14",68,382>, <"N1","N15",68,480>, <"N1","N16",68,310>, <"N1","N17",68,378>, <"N1","N18",68,282>, <"N1","N19",68,203>, <"N1","N20",68,0>, <"N1","N21",68,0>, <"N1","N22",68,174>, <"N1","N23",68,300>, <"N1","N24",68,269>, <"N1","N25",68,449>, <"N1","N26",68,518>, <"N1","N27",68,162>, <"N2","N1",68,0>, <"N2","N3",68,0>, <"N2","N4",68,216>, <"N2","N5",68,314>, <"N2","N6",68,377>, <"N2","N7",68,434>, <"N2","N8",68,472>, <"N2","N9",68,498>, <"N2","N10",68,554>, <"N2","N11",68,579>, <"N2","N12",68,438>, <"N2","N13",68,385>, <"N2","N14",68,310>, <"N2","N15",68,465>, <"N2","N16",68,326>, <"N2","N17",68,355>, <"N2","N18",68,225>, <"N2","N19",68,124>, <"N2","N20",68,0>, <"N2","N21",68,197>, <"N2","N22",68,277>, <"N2","N23",68,383>, <"N2","N24",68,320>, <"N2","N25",68,494>, <"N2","N26",68,532>, <"N2","N27",68,206>, <"N3","N1",68,231>, <"N3","N2",68,0>, <"N3","N4",68,0>, <"N3","N5",68,217>, <"N3","N6",68,285>, <"N3","N7",68,350>, <"N3","N8",68,393>, <"N3","N9",68,426>, <"N3","N10",68,490>, <"N3","N11",68,544>, <"N3","N12",68,386>, <"N3","N13",68,348>, <"N3","N14",68,255>, <"N3","N15",68,448>, <"N3","N16",68,346>, <"N3","N17",68,340>, <"N3","N18",68,197>, <"N3","N19",68,112>, <"N3","N20",68,192>, <"N3","N21",68,291>, <"N3","N22",68,357>, <"N3","N23",68,444>, <"N3","N24",68,364>, <"N3","N25",68,523>, <"N3","N26",68,536>, <"N3","N27",68,261>, <"N4","N1",68,339>, <"N4","N2",68,216>, <"N4","N3",68,0>, <"N4","N5",68,0>, <"N4","N6",68,177>, <"N4","N7",68,252>, <"N4","N8",68,300>, <"N4","N9",68,338>, <"N4","N10",68,412>, <"N4","N11",68,498>, <"N4","N12",68,328>, <"N4","N13",68,312>, <"N4","N14",68,206>, <"N4","N15",68,428>, <"N4","N16",68,373>, <"N4","N17",68,330>, <"N4","N18",68,199>, <"N4","N19",68,0>, <"N4","N20",68,289>, <"N4","N21",68,391>, <"N4","N22",68,443>, <"N4","N23",68,507>, <"N4","N24",68,415>, <"N4","N25",68,549>, <"N4","N26",68,534>, <"N4","N27",68,331>, <"N5","N1",68,430>, <"N5","N2",68,314>, <"N5","N3",68,217>, <"N5","N4",68,0>, <"N5","N6",68,0>, <"N5","N7",68,156>, <"N5","N8",68,207>, <"N5","N9",68,251>, <"N5","N10",68,330>, <"N5","N11",68,444>, <"N5","N12",68,271>, <"N5","N13",68,279>, <"N5","N14",68,0>, <"N5","N15",68,402>, <"N5","N16",68,394>, <"N5","N17",68,322>, <"N5","N18",68,0>, <"N5","N19",68,237>, <"N5","N20",68,370>, <"N5","N21",68,473>, <"N5","N22",68,509>, <"N5","N23",68,552>, <"N5","N24",68,453>, <"N5","N25",68,560>, <"N5","N26",68,519>, <"N5","N27",68,390>, <"N6","N1",68,485>, <"N6","N2",68,377>, <"N6","N3",68,285>, <"N6","N4",68,177>, <"N6","N5",68,0>, <"N6","N7",68,0>, <"N6","N8",68,137>, <"N6","N9",68,183>, <"N6","N10",68,264>, <"N6","N11",68,396>, <"N6","N12",68,227>, <"N6","N13",68,254>, <"N6","N14",68,0>, <"N6","N15",68,376>, <"N6","N16",68,402>, <"N6","N17",68,313>, <"N6","N18",68,246>, <"N6","N19",68,285>, <"N6","N20",68,420>, <"N6","N21",68,521>, <"N6","N22",68,546>, <"N6","N23",68,572>, <"N6","N24",68,471>, <"N6","N25",68,555>, <"N6","N26",68,498>, <"N6","N27",68,424>, <"N7","N1",68,529>, <"N7","N2",68,434>, <"N7","N3",68,350>, <"N7","N4",68,252>, <"N7","N5",68,156>, <"N7","N6",68,0>, <"N7","N8",68,0>, <"N7","N9",68,99>, <"N7","N10",68,181>, <"N7","N11",68,326>, <"N7","N12",68,169>, <"N7","N13",68,217>, <"N7","N14",68,0>, <"N7","N15",68,330>, <"N7","N16",68,393>, <"N7","N17",68,289>, <"N7","N18",68,263>, <"N7","N19",68,327>, <"N7","N20",68,459>, <"N7","N21",68,555>, <"N7","N22",68,565>, <"N7","N23",68,572>, <"N7","N24",68,471>, <"N7","N25",68,528>, <"N7","N26",68,453>, <"N7","N27",68,444>, <"N8","N1",68,560>, <"N8","N2",68,472>, <"N8","N3",68,393>, <"N8","N4",68,300>, <"N8","N5",68,207>, <"N8","N6",68,137>, <"N8","N7",68,0>, <"N8","N9",68,0>, <"N8","N10",68,131>, <"N8","N11",68,286>, <"N8","N12",68,145>, <"N8","N13",68,207>, <"N8","N14",68,183>, <"N8","N15",68,308>, <"N8","N16",68,395>, <"N8","N17",68,285>, <"N8","N18",68,285>, <"N8","N19",68,359>, <"N8","N20",68,487>, <"N8","N21",68,580>, <"N8","N22",68,582>, <"N8","N23",68,577>, <"N8","N24",68,477>, <"N8","N25",68,515>, <"N8","N26",68,430>, <"N8","N27",68,463>, <"N9","N1",68,578>, <"N9","N2",68,498>, <"N9","N3",68,426>, <"N9","N4",68,338>, <"N9","N5",68,251>, <"N9","N6",68,183>, <"N9","N7",68,99>, <"N9","N8",68,0>, <"N9","N10",68,0>, <"N9","N11",68,242>, <"N9","N12",68,0>, <"N9","N13",68,194>, <"N9","N14",68,196>, <"N9","N15",68,280>, <"N9","N16",68,387>, <"N9","N17",68,273>, <"N9","N18",68,297>, <"N9","N19",68,380>, <"N9","N20",68,504>, <"N9","N21",68,592>, <"N9","N22",68,586>, <"N9","N23",68,570>, <"N9","N24",68,472>, <"N9","N25",68,493>, <"N9","N26",68,399>, <"N9","N27",68,469>, <"N10","N1",68,622>, <"N10","N2",68,554>, <"N10","N3",68,490>, <"N10","N4",68,412>, <"N10","N5",68,330>, <"N10","N6",68,264>, <"N10","N7",68,181>, <"N10","N8",68,131>, <"N10","N9",68,0>, <"N10","N11",68,0>, <"N10","N12",68,0>, <"N10","N13",68,204>, <"N10","N14",68,244>, <"N10","N15",68,253>, <"N10","N16",68,394>, <"N10","N17",68,280>, <"N10","N18",68,340>, <"N10","N19",68,432>, <"N10","N20",68,546>, <"N10","N21",68,627>, <"N10","N22",68,607>, <"N10","N23",68,573>, <"N10","N24",68,480>, <"N10","N25",68,471>, <"N10","N26",68,362>, <"N10","N27",68,497>, <"N11","N1",68,610>, <"N11","N2",68,579>, <"N11","N3",68,544>, <"N11","N4",68,498>, <"N11","N5",68,444>, <"N11","N6",68,396>, <"N11","N7",68,326>, <"N11","N8",68,286>, <"N11","N9",68,242>, <"N11","N10",68,0>, <"N11","N12",68,0>, <"N11","N13",68,196>, <"N11","N14",68,294>, <"N11","N15",68,0>, <"N11","N16",68,321>, <"N11","N17",68,232>, <"N11","N18",68,355>, <"N11","N19",68,455>, <"N11","N20",68,536>, <"N11","N21",68,593>, <"N11","N22",68,546>, <"N11","N23",68,476>, <"N11","N24",68,402>, <"N11","N25",68,333>, <"N11","N26",68,0>, <"N11","N27",68,459>, <"N12","N1",68,496>, <"N12","N2",68,438>, <"N12","N3",68,386>, <"N12","N4",68,328>, <"N12","N5",68,271>, <"N12","N6",68,227>, <"N12","N7",68,169>, <"N12","N8",68,145>, <"N12","N9",68,0>, <"N12","N10",68,0>, <"N12","N11",68,0>, <"N12","N13",68,0>, <"N12","N14",68,131>, <"N12","N15",68,163>, <"N12","N16",68,270>, <"N12","N17",68,155>, <"N12","N18",68,217>, <"N12","N19",68,314>, <"N12","N20",68,420>, <"N12","N21",68,499>, <"N12","N22",68,479>, <"N12","N23",68,452>, <"N12","N24",68,356>, <"N12","N25",68,372>, <"N12","N26",68,286>, <"N12","N27",68,369>, <"N13","N1",68,430>, <"N13","N2",68,385>, <"N13","N3",68,348>, <"N13","N4",68,312>, <"N13","N5",68,279>, <"N13","N6",68,254>, <"N13","N7",68,217>, <"N13","N8",68,207>, <"N13","N9",68,194>, <"N13","N10",68,204>, <"N13","N11",68,196>, <"N13","N12",68,0>, <"N13","N14",68,106>, <"N13","N15",68,0>, <"N13","N16",68,194>, <"N13","N17",68,0>, <"N13","N18",68,160>, <"N13","N19",68,261>, <"N13","N20",68,355>, <"N13","N21",68,427>, <"N13","N22",68,404>, <"N13","N23",68,376>, <"N13","N24",68,280>, <"N13","N25",68,310>, <"N13","N26",68,243>, <"N13","N27",68,295>, <"N14","N1",68,382>, <"N14","N2",68,310>, <"N14","N3",68,255>, <"N14","N4",68,206>, <"N14","N5",68,0>, <"N14","N6",68,0>, <"N14","N7",68,0>, <"N14","N8",68,183>, <"N14","N9",68,196>, <"N14","N10",68,244>, <"N14","N11",68,294>, <"N14","N12",68,131>, <"N14","N13",68,106>, <"N14","N15",68,227>, <"N14","N16",68,233>, <"N14","N17",68,0>, <"N14","N18",68,102>, <"N14","N19",68,188>, <"N14","N20",68,308>, <"N14","N21",68,397>, <"N14","N22",68,400>, <"N14","N23",68,408>, <"N14","N24",68,306>, <"N14","N25",68,386>, <"N14","N26",68,341>, <"N14","N27",68,280>, <"N15","N1",68,480>, <"N15","N2",68,465>, <"N15","N3",68,448>, <"N15","N4",68,428>, <"N15","N5",68,402>, <"N15","N6",68,376>, <"N15","N7",68,330>, <"N15","N8",68,308>, <"N15","N9",68,280>, <"N15","N10",68,253>, <"N15","N11",68,0>, <"N15","N12",68,163>, <"N15","N13",68,0>, <"N15","N14",68,227>, <"N15","N16",68,0>, <"N15","N17",68,110>, <"N15","N18",68,251>, <"N15","N19",68,347>, <"N15","N20",68,408>, <"N15","N21",68,457>, <"N15","N22",68,406>, <"N15","N23",68,339>, <"N15","N24",68,261>, <"N15","N25",68,218>, <"N15","N26",68,123>, <"N15","N27",68,323>, <"N16","N1",68,310>, <"N16","N2",68,326>, <"N16","N3",68,346>, <"N16","N4",68,373>, <"N16","N5",68,394>, <"N16","N6",68,402>, <"N16","N7",68,393>, <"N16","N8",68,395>, <"N16","N9",68,387>, <"N16","N10",68,394>, <"N16","N11",68,321>, <"N16","N12",68,270>, <"N16","N13",68,194>, <"N16","N14",68,233>, <"N16","N15",68,0>, <"N16","N17",68,0>, <"N16","N18",68,0>, <"N16","N19",68,0>, <"N16","N20",68,245>, <"N16","N21",68,278>, <"N16","N22",68,225>, <"N16","N23",68,182>, <"N16","N24",68,0>, <"N16","N25",68,178>, <"N16","N26",68,0>, <"N16","N27",68,148>, <"N17","N1",68,378>, <"N17","N2",68,355>, <"N17","N3",68,340>, <"N17","N4",68,330>, <"N17","N5",68,322>, <"N17","N6",68,313>, <"N17","N7",68,289>, <"N17","N8",68,285>, <"N17","N9",68,273>, <"N17","N10",68,280>, <"N17","N11",68,232>, <"N17","N12",68,155>, <"N17","N13",68,0>, <"N17","N14",68,0>, <"N17","N15",68,110>, <"N17","N16",68,0>, <"N17","N18",68,0>, <"N17","N19",68,237>, <"N17","N20",68,304>, <"N17","N21",68,365>, <"N17","N22",68,331>, <"N17","N23",68,297>, <"N17","N24",68,201>, <"N17","N25",68,243>, <"N17","N26",68,204>, <"N17","N27",68,230>, <"N18","N1",68,282>, <"N18","N2",68,225>, <"N18","N3",68,197>, <"N18","N4",68,199>, <"N18","N5",68,0>, <"N18","N6",68,246>, <"N18","N7",68,263>, <"N18","N8",68,285>, <"N18","N9",68,297>, <"N18","N10",68,340>, <"N18","N11",68,355>, <"N18","N12",68,217>, <"N18","N13",68,160>, <"N18","N14",68,102>, <"N18","N15",68,251>, <"N18","N16",68,0>, <"N18","N17",68,0>, <"N18","N19",68,0>, <"N18","N20",68,207>, <"N18","N21",68,296>, <"N18","N22",68,303>, <"N18","N23",68,330>, <"N18","N24",68,230>, <"N18","N25",68,350>, <"N18","N26",68,342>, <"N18","N27",68,182>, <"N19","N1",68,203>, <"N19","N2",68,124>, <"N19","N3",68,112>, <"N19","N4",68,0>, <"N19","N5",68,237>, <"N19","N6",68,285>, <"N19","N7",68,327>, <"N19","N8",68,359>, <"N19","N9",68,380>, <"N19","N10",68,432>, <"N19","N11",68,455>, <"N19","N12",68,314>, <"N19","N13",68,261>, <"N19","N14",68,188>, <"N19","N15",68,347>, <"N19","N16",68,0>, <"N19","N17",68,237>, <"N19","N18",68,0>, <"N19","N20",68,0>, <"N19","N21",68,237>, <"N19","N22",68,277>, <"N19","N23",68,343>, <"N19","N24",68,0>, <"N19","N25",68,411>, <"N19","N26",68,427>, <"N19","N27",68,0>, <"N20","N1",68,0>, <"N20","N2",68,0>, <"N20","N3",68,192>, <"N20","N4",68,289>, <"N20","N5",68,370>, <"N20","N6",68,420>, <"N20","N7",68,459>, <"N20","N8",68,487>, <"N20","N9",68,504>, <"N20","N10",68,546>, <"N20","N11",68,536>, <"N20","N12",68,420>, <"N20","N13",68,355>, <"N20","N14",68,308>, <"N20","N15",68,408>, <"N20","N16",68,245>, <"N20","N17",68,304>, <"N20","N18",68,207>, <"N20","N19",68,0>, <"N20","N21",68,0>, <"N20","N22",68,0>, <"N20","N23",68,273>, <"N20","N24",68,219>, <"N20","N25",68,398>, <"N20","N26",68,454>, <"N20","N27",68,0>, <"N21","N1",68,0>, <"N21","N2",68,197>, <"N21","N3",68,291>, <"N21","N4",68,391>, <"N21","N5",68,473>, <"N21","N6",68,521>, <"N21","N7",68,555>, <"N21","N8",68,580>, <"N21","N9",68,592>, <"N21","N10",68,627>, <"N21","N11",68,593>, <"N21","N12",68,499>, <"N21","N13",68,427>, <"N21","N14",68,397>, <"N21","N15",68,457>, <"N21","N16",68,278>, <"N21","N17",68,365>, <"N21","N18",68,296>, <"N21","N19",68,237>, <"N21","N20",68,0>, <"N21","N22",68,0>, <"N21","N23",68,233>, <"N21","N24",68,220>, <"N21","N25",68,396>, <"N21","N26",68,478>, <"N21","N27",68,135>, <"N22","N1",68,174>, <"N22","N2",68,277>, <"N22","N3",68,357>, <"N22","N4",68,443>, <"N22","N5",68,509>, <"N22","N6",68,546>, <"N22","N7",68,565>, <"N22","N8",68,582>, <"N22","N9",68,586>, <"N22","N10",68,607>, <"N22","N11",68,546>, <"N22","N12",68,479>, <"N22","N13",68,404>, <"N22","N14",68,400>, <"N22","N15",68,406>, <"N22","N16",68,225>, <"N22","N17",68,331>, <"N22","N18",68,303>, <"N22","N19",68,277>, <"N22","N20",68,0>, <"N22","N21",68,0>, <"N22","N23",68,0>, <"N22","N24",68,0>, <"N22","N25",68,307>, <"N22","N26",68,405>, <"N22","N27",68,0>, <"N23","N1",68,300>, <"N23","N2",68,383>, <"N23","N3",68,444>, <"N23","N4",68,507>, <"N23","N5",68,552>, <"N23","N6",68,572>, <"N23","N7",68,572>, <"N23","N8",68,577>, <"N23","N9",68,570>, <"N23","N10",68,573>, <"N23","N11",68,476>, <"N23","N12",68,452>, <"N23","N13",68,376>, <"N23","N14",68,408>, <"N23","N15",68,339>, <"N23","N16",68,182>, <"N23","N17",68,297>, <"N23","N18",68,330>, <"N23","N19",68,343>, <"N23","N20",68,273>, <"N23","N21",68,233>, <"N23","N22",68,0>, <"N23","N24",68,0>, <"N23","N25",68,0>, <"N23","N26",68,303>, <"N23","N27",68,0>, <"N24","N1",68,269>, <"N24","N2",68,320>, <"N24","N3",68,364>, <"N24","N4",68,415>, <"N24","N5",68,453>, <"N24","N6",68,471>, <"N24","N7",68,471>, <"N24","N8",68,477>, <"N24","N9",68,472>, <"N24","N10",68,480>, <"N24","N11",68,402>, <"N24","N12",68,356>, <"N24","N13",68,280>, <"N24","N14",68,306>, <"N24","N15",68,261>, <"N24","N16",68,0>, <"N24","N17",68,201>, <"N24","N18",68,230>, <"N24","N19",68,0>, <"N24","N20",68,219>, <"N24","N21",68,220>, <"N24","N22",68,0>, <"N24","N23",68,0>, <"N24","N25",68,0>, <"N24","N26",68,260>, <"N24","N27",68,0>, <"N25","N1",68,449>, <"N25","N2",68,494>, <"N25","N3",68,523>, <"N25","N4",68,549>, <"N25","N5",68,560>, <"N25","N6",68,555>, <"N25","N7",68,528>, <"N25","N8",68,515>, <"N25","N9",68,493>, <"N25","N10",68,471>, <"N25","N11",68,333>, <"N25","N12",68,372>, <"N25","N13",68,310>, <"N25","N14",68,386>, <"N25","N15",68,218>, <"N25","N16",68,178>, <"N25","N17",68,243>, <"N25","N18",68,350>, <"N25","N19",68,411>, <"N25","N20",68,398>, <"N25","N21",68,396>, <"N25","N22",68,307>, <"N25","N23",68,0>, <"N25","N24",68,0>, <"N25","N26",68,0>, <"N25","N27",68,294>, <"N26","N1",68,518>, <"N26","N2",68,532>, <"N26","N3",68,536>, <"N26","N4",68,534>, <"N26","N5",68,519>, <"N26","N6",68,498>, <"N26","N7",68,453>, <"N26","N8",68,430>, <"N26","N9",68,399>, <"N26","N10",68,362>, <"N26","N11",68,0>, <"N26","N12",68,286>, <"N26","N13",68,243>, <"N26","N14",68,341>, <"N26","N15",68,123>, <"N26","N16",68,0>, <"N26","N17",68,204>, <"N26","N18",68,342>, <"N26","N19",68,427>, <"N26","N20",68,454>, <"N26","N21",68,478>, <"N26","N22",68,405>, <"N26","N23",68,303>, <"N26","N24",68,260>, <"N26","N25",68,0>, <"N26","N27",68,355>, <"N27","N1",68,162>, <"N27","N2",68,206>, <"N27","N3",68,261>, <"N27","N4",68,331>, <"N27","N5",68,390>, <"N27","N6",68,424>, <"N27","N7",68,444>, <"N27","N8",68,463>, <"N27","N9",68,469>, <"N27","N10",68,497>, <"N27","N11",68,459>, <"N27","N12",68,369>, <"N27","N13",68,295>, <"N27","N14",68,280>, <"N27","N15",68,323>, <"N27","N16",68,148>, <"N27","N17",68,230>, <"N27","N18",68,182>, <"N27","N19",68,0>, <"N27","N20",68,0>, <"N27","N21",68,135>, <"N27","N22",68,0>, <"N27","N23",68,0>, <"N27","N24",68,0>, <"N27","N25",68,294>, <"N27","N26",68,355>};
Demands = {<"N1","N2",2,0>, <"N1","N3",4,0>, <"N1","N4",6,0>, <"N1","N5",8,0>, <"N1","N6",10,0>, <"N1","N7",12,0>, <"N1","N8",14,0>, <"N1","N9",16,0>, <"N1","N10",18,0>, <"N1","N11",20,0>, <"N1","N12",22,0>, <"N1","N13",24,0>, <"N1","N14",26,0>, <"N1","N15",28,0>, <"N1","N16",30,0>, <"N1","N17",32,0>, <"N1","N18",34,0>, <"N1","N19",36,0>, <"N1","N20",38,0>, <"N1","N21",40,0>, <"N1","N22",42,0>, <"N1","N23",44,0>, <"N1","N24",46,0>, <"N1","N25",48,0>, <"N1","N26",50,0>, <"N1","N27",52,0>, <"N2","N1",2,0>, <"N2","N3",2,0>, <"N2","N4",4,0>, <"N2","N5",6,0>, <"N2","N6",8,0>, <"N2","N7",10,0>, <"N2","N8",12,0>, <"N2","N9",14,0>, <"N2","N10",16,0>, <"N2","N11",18,0>, <"N2","N12",20,0>, <"N2","N13",22,0>, <"N2","N14",24,0>, <"N2","N15",26,0>, <"N2","N16",28,0>, <"N2","N17",30,0>, <"N2","N18",32,0>, <"N2","N19",34,0>, <"N2","N20",36,0>, <"N2","N21",38,0>, <"N2","N22",40,0>, <"N2","N23",42,0>, <"N2","N24",44,0>, <"N2","N25",46,0>, <"N2","N26",48,0>, <"N2","N27",50,0>, <"N3","N1",4,0>, <"N3","N2",2,0>, <"N3","N4",2,0>, <"N3","N5",4,0>, <"N3","N6",6,0>, <"N3","N7",8,0>, <"N3","N8",10,0>, <"N3","N9",12,0>, <"N3","N10",14,0>, <"N3","N11",16,0>, <"N3","N12",18,0>, <"N3","N13",20,0>, <"N3","N14",22,0>, <"N3","N15",24,0>, <"N3","N16",26,0>, <"N3","N17",28,0>, <"N3","N18",30,0>, <"N3","N19",32,0>, <"N3","N20",34,0>, <"N3","N21",36,0>, <"N3","N22",38,0>, <"N3","N23",40,0>, <"N3","N24",42,0>, <"N3","N25",44,0>, <"N3","N26",46,0>, <"N3","N27",48,0>, <"N4","N1",6,0>, <"N4","N2",4,0>, <"N4","N3",2,0>, <"N4","N5",2,0>, <"N4","N6",4,0>, <"N4","N7",6,0>, <"N4","N8",8,0>, <"N4","N9",10,0>, <"N4","N10",12,0>, <"N4","N11",14,0>, <"N4","N12",16,0>, <"N4","N13",18,0>, <"N4","N14",20,0>, <"N4","N15",22,0>, <"N4","N16",24,0>, <"N4","N17",26,0>, <"N4","N18",28,0>, <"N4","N19",30,0>, <"N4","N20",32,0>, <"N4","N21",34,0>, <"N4","N22",36,0>, <"N4","N23",38,0>, <"N4","N24",40,0>, <"N4","N25",42,0>, <"N4","N26",44,0>, <"N4","N27",46,0>, <"N5","N1",8,0>, <"N5","N2",6,0>, <"N5","N3",4,0>, <"N5","N4",2,0>, <"N5","N6",2,0>, <"N5","N7",4,0>, <"N5","N8",6,0>, <"N5","N9",8,0>, <"N5","N10",10,0>, <"N5","N11",12,0>, <"N5","N12",14,0>, <"N5","N13",16,0>, <"N5","N14",18,0>, <"N5","N15",20,0>, <"N5","N16",22,0>, <"N5","N17",24,0>, <"N5","N18",26,0>, <"N5","N19",28,0>, <"N5","N20",30,0>, <"N5","N21",32,0>, <"N5","N22",34,0>, <"N5","N23",36,0>, <"N5","N24",38,0>, <"N5","N25",40,0>, <"N5","N26",42,0>, <"N5","N27",44,0>, <"N6","N1",10,0>, <"N6","N2",8,0>, <"N6","N3",6,0>, <"N6","N4",4,0>, <"N6","N5",2,0>, <"N6","N7",2,0>, <"N6","N8",4,0>, <"N6","N9",6,0>, <"N6","N10",8,0>, <"N6","N11",10,0>, <"N6","N12",12,0>, <"N6","N13",14,0>, <"N6","N14",16,0>, <"N6","N15",18,0>, <"N6","N16",20,0>, <"N6","N17",22,0>, <"N6","N18",24,0>, <"N6","N19",26,0>, <"N6","N20",28,0>, <"N6","N21",30,0>, <"N6","N22",32,0>, <"N6","N23",34,0>, <"N6","N24",36,0>, <"N6","N25",38,0>, <"N6","N26",40,0>, <"N6","N27",42,0>, <"N7","N1",12,0>, <"N7","N2",10,0>, <"N7","N3",8,0>, <"N7","N4",6,0>, <"N7","N5",4,0>, <"N7","N6",2,0>, <"N7","N8",2,0>, <"N7","N9",4,0>, <"N7","N10",6,0>, <"N7","N11",8,0>, <"N7","N12",10,0>, <"N7","N13",12,0>, <"N7","N14",14,0>, <"N7","N15",16,0>, <"N7","N16",18,0>, <"N7","N17",20,0>, <"N7","N18",22,0>, <"N7","N19",24,0>, <"N7","N20",26,0>, <"N7","N21",28,0>, <"N7","N22",30,0>, <"N7","N23",32,0>, <"N7","N24",34,0>, <"N7","N25",36,0>, <"N7","N26",38,0>, <"N7","N27",40,0>, <"N8","N1",14,0>, <"N8","N2",12,0>, <"N8","N3",10,0>, <"N8","N4",8,0>, <"N8","N5",6,0>, <"N8","N6",4,0>, <"N8","N7",2,0>, <"N8","N9",2,0>, <"N8","N10",4,0>, <"N8","N11",6,0>, <"N8","N12",8,0>, <"N8","N13",10,0>, <"N8","N14",12,0>, <"N8","N15",14,0>, <"N8","N16",16,0>, <"N8","N17",18,0>, <"N8","N18",20,0>, <"N8","N19",22,0>, <"N8","N20",24,0>, <"N8","N21",26,0>, <"N8","N22",28,0>, <"N8","N23",30,0>, <"N8","N24",32,0>, <"N8","N25",34,0>, <"N8","N26",36,0>, <"N8","N27",38,0>, <"N9","N1",16,0>, <"N9","N2",14,0>, <"N9","N3",12,0>, <"N9","N4",10,0>, <"N9","N5",8,0>, <"N9","N6",6,0>, <"N9","N7",4,0>, <"N9","N8",2,0>, <"N9","N10",2,0>, <"N9","N11",4,0>, <"N9","N12",6,0>, <"N9","N13",8,0>, <"N9","N14",10,0>, <"N9","N15",12,0>, <"N9","N16",14,0>, <"N9","N17",16,0>, <"N9","N18",18,0>, <"N9","N19",20,0>, <"N9","N20",22,0>, <"N9","N21",24,0>, <"N9","N22",26,0>, <"N9","N23",28,0>, <"N9","N24",30,0>, <"N9","N25",32,0>, <"N9","N26",34,0>, <"N9","N27",36,0>, <"N10","N1",18,0>, <"N10","N2",16,0>, <"N10","N3",14,0>, <"N10","N4",12,0>, <"N10","N5",10,0>, <"N10","N6",8,0>, <"N10","N7",6,0>, <"N10","N8",4,0>, <"N10","N9",2,0>, <"N10","N11",2,0>, <"N10","N12",4,0>, <"N10","N13",6,0>, <"N10","N14",8,0>, <"N10","N15",10,0>, <"N10","N16",12,0>, <"N10","N17",14,0>, <"N10","N18",16,0>, <"N10","N19",18,0>, <"N10","N20",20,0>, <"N10","N21",22,0>, <"N10","N22",24,0>, <"N10","N23",26,0>, <"N10","N24",28,0>, <"N10","N25",30,0>, <"N10","N26",32,0>, <"N10","N27",34,0>, <"N11","N1",20,0>, <"N11","N2",18,0>, <"N11","N3",16,0>, <"N11","N4",14,0>, <"N11","N5",12,0>, <"N11","N6",10,0>, <"N11","N7",8,0>, <"N11","N8",6,0>, <"N11","N9",4,0>, <"N11","N10",2,0>, <"N11","N12",2,0>, <"N11","N13",4,0>, <"N11","N14",6,0>, <"N11","N15",8,0>, <"N11","N16",10,0>, <"N11","N17",12,0>, <"N11","N18",14,0>, <"N11","N19",16,0>, <"N11","N20",18,0>, <"N11","N21",20,0>, <"N11","N22",22,0>, <"N11","N23",24,0>, <"N11","N24",26,0>, <"N11","N25",28,0>, <"N11","N26",30,0>, <"N11","N27",32,0>, <"N12","N1",22,0>, <"N12","N2",20,0>, <"N12","N3",18,0>, <"N12","N4",16,0>, <"N12","N5",14,0>, <"N12","N6",12,0>, <"N12","N7",10,0>, <"N12","N8",8,0>, <"N12","N9",6,0>, <"N12","N10",4,0>, <"N12","N11",2,0>, <"N12","N13",2,0>, <"N12","N14",4,0>, <"N12","N15",6,0>, <"N12","N16",8,0>, <"N12","N17",10,0>, <"N12","N18",12,0>, <"N12","N19",14,0>, <"N12","N20",16,0>, <"N12","N21",18,0>, <"N12","N22",20,0>, <"N12","N23",22,0>, <"N12","N24",24,0>, <"N12","N25",26,0>, <"N12","N26",28,0>, <"N12","N27",30,0>, <"N13","N1",24,0>, <"N13","N2",22,0>, <"N13","N3",20,0>, <"N13","N4",18,0>, <"N13","N5",16,0>, <"N13","N6",14,0>, <"N13","N7",12,0>, <"N13","N8",10,0>, <"N13","N9",8,0>, <"N13","N10",6,0>, <"N13","N11",4,0>, <"N13","N12",2,0>, <"N13","N14",2,0>, <"N13","N15",4,0>, <"N13","N16",6,0>, <"N13","N17",8,0>, <"N13","N18",10,0>, <"N13","N19",12,0>, <"N13","N20",14,0>, <"N13","N21",16,0>, <"N13","N22",18,0>, <"N13","N23",20,0>, <"N13","N24",22,0>, <"N13","N25",24,0>, <"N13","N26",26,0>, <"N13","N27",28,0>, <"N14","N1",26,0>, <"N14","N2",24,0>, <"N14","N3",22,0>, <"N14","N4",20,0>, <"N14","N5",18,0>, <"N14","N6",16,0>, <"N14","N7",14,0>, <"N14","N8",12,0>, <"N14","N9",10,0>, <"N14","N10",8,0>, <"N14","N11",6,0>, <"N14","N12",4,0>, <"N14","N13",2,0>, <"N14","N15",2,0>, <"N14","N16",4,0>, <"N14","N17",6,0>, <"N14","N18",8,0>, <"N14","N19",10,0>, <"N14","N20",12,0>, <"N14","N21",14,0>, <"N14","N22",16,0>, <"N14","N23",18,0>, <"N14","N24",20,0>, <"N14","N25",22,0>, <"N14","N26",24,0>, <"N14","N27",26,0>, <"N15","N1",28,0>, <"N15","N2",26,0>, <"N15","N3",24,0>, <"N15","N4",22,0>, <"N15","N5",20,0>, <"N15","N6",18,0>, <"N15","N7",16,0>, <"N15","N8",14,0>, <"N15","N9",12,0>, <"N15","N10",10,0>, <"N15","N11",8,0>, <"N15","N12",6,0>, <"N15","N13",4,0>, <"N15","N14",2,0>, <"N15","N16",2,0>, <"N15","N17",4,0>, <"N15","N18",6,0>, <"N15","N19",8,0>, <"N15","N20",10,0>, <"N15","N21",12,0>, <"N15","N22",14,0>, <"N15","N23",16,0>, <"N15","N24",18,0>, <"N15","N25",20,0>, <"N15","N26",22,0>, <"N15","N27",24,0>, <"N16","N1",30,0>, <"N16","N2",28,0>, <"N16","N3",26,0>, <"N16","N4",24,0>, <"N16","N5",22,0>, <"N16","N6",20,0>, <"N16","N7",18,0>, <"N16","N8",16,0>, <"N16","N9",14,0>, <"N16","N10",12,0>, <"N16","N11",10,0>, <"N16","N12",8,0>, <"N16","N13",6,0>, <"N16","N14",4,0>, <"N16","N15",2,0>, <"N16","N17",2,0>, <"N16","N18",4,0>, <"N16","N19",6,0>, <"N16","N20",8,0>, <"N16","N21",10,0>, <"N16","N22",12,0>, <"N16","N23",14,0>, <"N16","N24",16,0>, <"N16","N25",18,0>, <"N16","N26",20,0>, <"N16","N27",22,0>, <"N17","N1",32,0>, <"N17","N2",30,0>, <"N17","N3",28,0>, <"N17","N4",26,0>, <"N17","N5",24,0>, <"N17","N6",22,0>, <"N17","N7",20,0>, <"N17","N8",18,0>, <"N17","N9",16,0>, <"N17","N10",14,0>, <"N17","N11",12,0>, <"N17","N12",10,0>, <"N17","N13",8,0>, <"N17","N14",6,0>, <"N17","N15",4,0>, <"N17","N16",2,0>, <"N17","N18",2,0>, <"N17","N19",4,0>, <"N17","N20",6,0>, <"N17","N21",8,0>, <"N17","N22",10,0>, <"N17","N23",12,0>, <"N17","N24",14,0>, <"N17","N25",16,0>, <"N17","N26",18,0>, <"N17","N27",20,0>, <"N18","N1",34,0>, <"N18","N2",32,0>, <"N18","N3",30,0>, <"N18","N4",28,0>, <"N18","N5",26,0>, <"N18","N6",24,0>, <"N18","N7",22,0>, <"N18","N8",20,0>, <"N18","N9",18,0>, <"N18","N10",16,0>, <"N18","N11",14,0>, <"N18","N12",12,0>, <"N18","N13",10,0>, <"N18","N14",8,0>, <"N18","N15",6,0>, <"N18","N16",4,0>, <"N18","N17",2,0>, <"N18","N19",2,0>, <"N18","N20",4,0>, <"N18","N21",6,0>, <"N18","N22",8,0>, <"N18","N23",10,0>, <"N18","N24",12,0>, <"N18","N25",14,0>, <"N18","N26",16,0>, <"N18","N27",18,0>, <"N19","N1",36,0>, <"N19","N2",34,0>, <"N19","N3",32,0>, <"N19","N4",30,0>, <"N19","N5",28,0>, <"N19","N6",26,0>, <"N19","N7",24,0>, <"N19","N8",22,0>, <"N19","N9",20,0>, <"N19","N10",18,0>, <"N19","N11",16,0>, <"N19","N12",14,0>, <"N19","N13",12,0>, <"N19","N14",10,0>, <"N19","N15",8,0>, <"N19","N16",6,0>, <"N19","N17",4,0>, <"N19","N18",2,0>, <"N19","N20",2,0>, <"N19","N21",4,0>, <"N19","N22",6,0>, <"N19","N23",8,0>, <"N19","N24",10,0>, <"N19","N25",12,0>, <"N19","N26",14,0>, <"N19","N27",16,0>, <"N20","N1",38,0>, <"N20","N2",36,0>, <"N20","N3",34,0>, <"N20","N4",32,0>, <"N20","N5",30,0>, <"N20","N6",28,0>, <"N20","N7",26,0>, <"N20","N8",24,0>, <"N20","N9",22,0>, <"N20","N10",20,0>, <"N20","N11",18,0>, <"N20","N12",16,0>, <"N20","N13",14,0>, <"N20","N14",12,0>, <"N20","N15",10,0>, <"N20","N16",8,0>, <"N20","N17",6,0>, <"N20","N18",4,0>, <"N20","N19",2,0>, <"N20","N21",2,0>, <"N20","N22",4,0>, <"N20","N23",6,0>, <"N20","N24",8,0>, <"N20","N25",10,0>, <"N20","N26",12,0>, <"N20","N27",14,0>, <"N21","N1",40,0>, <"N21","N2",38,0>, <"N21","N3",36,0>, <"N21","N4",34,0>, <"N21","N5",32,0>, <"N21","N6",30,0>, <"N21","N7",28,0>, <"N21","N8",26,0>, <"N21","N9",24,0>, <"N21","N10",22,0>, <"N21","N11",20,0>, <"N21","N12",18,0>, <"N21","N13",16,0>, <"N21","N14",14,0>, <"N21","N15",12,0>, <"N21","N16",10,0>, <"N21","N17",8,0>, <"N21","N18",6,0>, <"N21","N19",4,0>, <"N21","N20",2,0>, <"N21","N22",2,0>, <"N21","N23",4,0>, <"N21","N24",6,0>, <"N21","N25",8,0>, <"N21","N26",10,0>, <"N21","N27",12,0>, <"N22","N1",42,0>, <"N22","N2",40,0>, <"N22","N3",38,0>, <"N22","N4",36,0>, <"N22","N5",34,0>, <"N22","N6",32,0>, <"N22","N7",30,0>, <"N22","N8",28,0>, <"N22","N9",26,0>, <"N22","N10",24,0>, <"N22","N11",22,0>, <"N22","N12",20,0>, <"N22","N13",18,0>, <"N22","N14",16,0>, <"N22","N15",14,0>, <"N22","N16",12,0>, <"N22","N17",10,0>, <"N22","N18",8,0>, <"N22","N19",6,0>, <"N22","N20",4,0>, <"N22","N21",2,0>, <"N22","N23",2,0>, <"N22","N24",4,0>, <"N22","N25",6,0>, <"N22","N26",8,0>, <"N22","N27",10,0>, <"N23","N1",44,0>, <"N23","N2",42,0>, <"N23","N3",40,0>, <"N23","N4",38,0>, <"N23","N5",36,0>, <"N23","N6",34,0>, <"N23","N7",32,0>, <"N23","N8",30,0>, <"N23","N9",28,0>, <"N23","N10",26,0>, <"N23","N11",24,0>, <"N23","N12",22,0>, <"N23","N13",20,0>, <"N23","N14",18,0>, <"N23","N15",16,0>, <"N23","N16",14,0>, <"N23","N17",12,0>, <"N23","N18",10,0>, <"N23","N19",8,0>, <"N23","N20",6,0>, <"N23","N21",4,0>, <"N23","N22",2,0>, <"N23","N24",2,0>, <"N23","N25",4,0>, <"N23","N26",6,0>, <"N23","N27",8,0>, <"N24","N1",46,0>, <"N24","N2",44,0>, <"N24","N3",42,0>, <"N24","N4",40,0>, <"N24","N5",38,0>, <"N24","N6",36,0>, <"N24","N7",34,0>, <"N24","N8",32,0>, <"N24","N9",30,0>, <"N24","N10",28,0>, <"N24","N11",26,0>, <"N24","N12",24,0>, <"N24","N13",22,0>, <"N24","N14",20,0>, <"N24","N15",18,0>, <"N24","N16",16,0>, <"N24","N17",14,0>, <"N24","N18",12,0>, <"N24","N19",10,0>, <"N24","N20",8,0>, <"N24","N21",6,0>, <"N24","N22",4,0>, <"N24","N23",2,0>, <"N24","N25",2,0>, <"N24","N26",4,0>, <"N24","N27",6,0>, <"N25","N1",48,0>, <"N25","N2",46,0>, <"N25","N3",44,0>, <"N25","N4",42,0>, <"N25","N5",40,0>, <"N25","N6",38,0>, <"N25","N7",36,0>, <"N25","N8",34,0>, <"N25","N9",32,0>, <"N25","N10",30,0>, <"N25","N11",28,0>, <"N25","N12",26,0>, <"N25","N13",24,0>, <"N25","N14",22,0>, <"N25","N15",20,0>, <"N25","N16",18,0>, <"N25","N17",16,0>, <"N25","N18",14,0>, <"N25","N19",12,0>, <"N25","N20",10,0>, <"N25","N21",8,0>, <"N25","N22",6,0>, <"N25","N23",4,0>, <"N25","N24",2,0>, <"N25","N26",2,0>, <"N25","N27",4,0>, <"N26","N1",50,0>, <"N26","N2",48,0>, <"N26","N3",46,0>, <"N26","N4",44,0>, <"N26","N5",42,0>, <"N26","N6",40,0>, <"N26","N7",38,0>, <"N26","N8",36,0>, <"N26","N9",34,0>, <"N26","N10",32,0>, <"N26","N11",30,0>, <"N26","N12",28,0>, <"N26","N13",26,0>, <"N26","N14",24,0>, <"N26","N15",22,0>, <"N26","N16",20,0>, <"N26","N17",18,0>, <"N26","N18",16,0>, <"N26","N19",14,0>, <"N26","N20",12,0>, <"N26","N21",10,0>, <"N26","N22",8,0>, <"N26","N23",6,0>, <"N26","N24",4,0>, <"N26","N25",2,0>, <"N26","N27",2,0>, <"N27","N1",52,0>, <"N27","N2",50,0>, <"N27","N3",48,0>, <"N27","N4",46,0>, <"N27","N5",44,0>, <"N27","N6",42,0>, <"N27","N7",40,0>, <"N27","N8",38,0>, <"N27","N9",36,0>, <"N27","N10",34,0>, <"N27","N11",32,0>, <"N27","N12",30,0>, <"N27","N13",28,0>, <"N27","N14",26,0>, <"N27","N15",24,0>, <"N27","N16",22,0>, <"N27","N17",20,0>, <"N27","N18",18,0>, <"N27","N19",16,0>, <"N27","N20",14,0>, <"N27","N21",12,0>, <"N27","N22",10,0>, <"N27","N23",8,0>, <"N27","N24",6,0>, <"N27","N25",4,0>, <"N27","N26",2,0>};
